p edge 84 354
e 1 8
e 1 11
e 1 42
e 1 43
e 1 49
e 1 56
e 1 57
e 1 58
e 1 76
e 1 79
e 2 22
e 2 32
e 2 33
e 2 38
e 2 52
e 2 62
e 2 74
e 2 84
e 3 10
e 3 24
e 3 33
e 3 34
e 3 61
e 3 62
e 3 71
e 3 84
e 4 29
e 4 40
e 4 53
e 4 72
e 5 25
e 5 29
e 5 47
e 5 67
e 5 70
e 5 76
e 6 7
e 6 18
e 6 23
e 6 59
e 6 70
e 6 81
e 7 14
e 7 22
e 7 26
e 7 47
e 7 55
e 7 67
e 7 71
e 8 25
e 8 28
e 8 31
e 8 33
e 8 50
e 8 61
e 8 74
e 9 41
e 9 49
e 9 50
e 9 56
e 9 59
e 9 75
e 10 18
e 10 28
e 10 42
e 10 46
e 10 49
e 10 63
e 10 75
e 10 76
e 10 77
e 10 79
e 10 83
e 11 17
e 11 47
e 11 50
e 11 70
e 11 78
e 12 37
e 12 48
e 12 68
e 12 75
e 12 76
e 12 82
e 13 16
e 13 17
e 13 50
e 13 62
e 14 22
e 14 23
e 14 28
e 14 38
e 14 67
e 14 70
e 14 74
e 14 78
e 15 26
e 15 70
e 15 76
e 16 17
e 16 24
e 16 27
e 16 31
e 16 48
e 16 49
e 16 60
e 16 61
e 16 74
e 17 39
e 17 44
e 17 46
e 17 47
e 17 50
e 17 65
e 17 76
e 18 27
e 18 31
e 18 35
e 18 53
e 18 56
e 18 65
e 18 66
e 18 78
e 18 83
e 19 20
e 19 37
e 19 43
e 19 53
e 19 56
e 19 71
e 19 79
e 19 82
e 20 32
e 20 33
e 20 34
e 20 41
e 20 55
e 20 72
e 20 78
e 21 26
e 21 43
e 21 48
e 21 54
e 21 55
e 21 58
e 21 68
e 21 75
e 21 78
e 22 37
e 22 51
e 22 53
e 22 74
e 23 34
e 23 40
e 23 42
e 23 43
e 23 49
e 23 61
e 23 78
e 23 83
e 24 29
e 24 51
e 24 54
e 24 65
e 24 77
e 25 27
e 25 41
e 25 58
e 25 77
e 26 35
e 26 39
e 26 43
e 26 64
e 26 74
e 26 77
e 26 79
e 26 81
e 27 43
e 27 44
e 27 80
e 28 42
e 28 51
e 28 63
e 28 67
e 28 73
e 28 74
e 28 76
e 29 43
e 29 55
e 30 40
e 30 45
e 31 35
e 31 44
e 31 45
e 31 48
e 31 71
e 31 72
e 31 76
e 31 78
e 32 38
e 32 39
e 32 49
e 32 62
e 32 74
e 33 40
e 33 46
e 33 47
e 33 53
e 33 54
e 33 62
e 33 63
e 33 67
e 33 80
e 34 61
e 34 62
e 34 66
e 34 71
e 35 54
e 35 55
e 35 59
e 35 73
e 35 80
e 36 44
e 36 49
e 36 57
e 36 69
e 36 77
e 36 79
e 36 81
e 37 41
e 37 52
e 37 76
e 37 77
e 38 46
e 38 48
e 38 49
e 38 52
e 38 59
e 38 69
e 38 75
e 38 79
e 39 54
e 39 64
e 39 65
e 39 68
e 40 56
e 40 60
e 40 74
e 41 44
e 41 69
e 41 71
e 41 79
e 42 45
e 42 64
e 42 65
e 43 48
e 43 80
e 43 84
e 44 45
e 44 47
e 44 48
e 44 64
e 44 68
e 44 77
e 45 46
e 45 48
e 45 58
e 45 63
e 45 80
e 46 66
e 47 50
e 47 52
e 47 56
e 47 65
e 48 59
e 48 60
e 48 69
e 48 70
e 49 53
e 49 79
e 49 80
e 50 54
e 50 60
e 50 63
e 50 83
e 50 84
e 51 52
e 51 54
e 51 64
e 52 55
e 52 61
e 52 65
e 52 74
e 52 75
e 52 82
e 53 54
e 53 57
e 54 72
e 54 77
e 55 67
e 55 81
e 55 82
e 55 83
e 56 67
e 56 71
e 56 77
e 56 79
e 57 63
e 57 75
e 57 83
e 58 67
e 58 72
e 59 80
e 59 81
e 60 78
e 60 83
e 61 64
e 61 71
e 61 76
e 61 78
e 62 65
e 62 67
e 62 74
e 63 81
e 64 75
e 64 82
e 65 76
e 66 67
e 66 71
e 66 74
e 66 79
e 67 78
e 67 83
e 68 69
e 68 70
e 68 77
e 68 78
e 69 70
e 69 74
e 70 72
e 70 73
e 70 84
e 71 72
e 71 81
e 71 82
e 72 82
e 73 81
e 74 77
e 76 78
e 76 84
e 77 79
e 77 83
e 78 81
e 79 82
